Route #1: 13 30 15 32 
Route #2: 24 29 36 14 18 4 7 
Route #3: 21 28 23 22 12 11 10 26 
Route #4: 16 25 35 27 
Route #5: 17 19 2 9 33 20 6 
Route #6: 8 5 3 1 31 34 
cost 1000.43
execution_time 19.917
